c Mesh Graph
c 20 Rows, 20 columns, capacities in range [0, 600]
p max 402 1180
n 1 s
n 402 t
a 1 21 1800
a 1 20 1800
a 1 19 1800
a 1 18 1800
a 1 17 1800
a 1 16 1800
a 1 15 1800
a 1 14 1800
a 1 13 1800
a 1 12 1800
a 1 11 1800
a 1 10 1800
a 1 9 1800
a 1 8 1800
a 1 7 1800
a 1 6 1800
a 1 5 1800
a 1 4 1800
a 1 3 1800
a 1 2 1800
a 2 23 178
a 2 22 287
a 2 41 584
a 3 24 536
a 3 23 594
a 3 22 116
a 4 25 250
a 4 24 493
a 4 23 587
a 5 26 428
a 5 25 363
a 5 24 422
a 6 27 564
a 6 26 260
a 6 25 291
a 7 28 427
a 7 27 541
a 7 26 527
a 8 29 12
a 8 28 137
a 8 27 173
a 9 30 430
a 9 29 568
a 9 28 369
a 10 31 63
a 10 30 531
a 10 29 183
a 11 32 536
a 11 31 68
a 11 30 524
a 12 33 223
a 12 32 403
a 12 31 330
a 13 34 568
a 13 33 270
a 13 32 259
a 14 35 212
a 14 34 257
a 14 33 194
a 15 36 574
a 15 35 430
a 15 34 443
a 16 37 585
a 16 36 120
a 16 35 22
a 17 38 525
a 17 37 399
a 17 36 338
a 18 39 414
a 18 38 571
a 18 37 516
a 19 40 381
a 19 39 92
a 19 38 527
a 20 41 63
a 20 40 274
a 20 39 357
a 21 22 482
a 21 41 197
a 21 40 171
a 22 43 285
a 22 42 526
a 22 61 106
a 23 44 306
a 23 43 537
a 23 42 328
a 24 45 314
a 24 44 130
a 24 43 47
a 25 46 496
a 25 45 325
a 25 44 258
a 26 47 15
a 26 46 346
a 26 45 583
a 27 48 165
a 27 47 435
a 27 46 568
a 28 49 488
a 28 48 351
a 28 47 244
a 29 50 579
a 29 49 277
a 29 48 409
a 30 51 4
a 30 50 385
a 30 49 189
a 31 52 200
a 31 51 555
a 31 50 252
a 32 53 477
a 32 52 61
a 32 51 133
a 33 54 413
a 33 53 140
a 33 52 169
a 34 55 295
a 34 54 187
a 34 53 227
a 35 56 371
a 35 55 196
a 35 54 540
a 36 57 468
a 36 56 179
a 36 55 435
a 37 58 303
a 37 57 498
a 37 56 202
a 38 59 53
a 38 58 493
a 38 57 118
a 39 60 81
a 39 59 302
a 39 58 357
a 40 61 466
a 40 60 242
a 40 59 87
a 41 42 420
a 41 61 245
a 41 60 90
a 42 63 232
a 42 62 130
a 42 81 41
a 43 64 372
a 43 63 298
a 43 62 518
a 44 65 310
a 44 64 276
a 44 63 82
a 45 66 257
a 45 65 568
a 45 64 128
a 46 67 187
a 46 66 154
a 46 65 498
a 47 68 84
a 47 67 107
a 47 66 366
a 48 69 329
a 48 68 225
a 48 67 420
a 49 70 30
a 49 69 333
a 49 68 472
a 50 71 271
a 50 70 420
a 50 69 304
a 51 72 516
a 51 71 509
a 51 70 169
a 52 73 397
a 52 72 550
a 52 71 341
a 53 74 446
a 53 73 219
a 53 72 324
a 54 75 122
a 54 74 52
a 54 73 447
a 55 76 89
a 55 75 180
a 55 74 156
a 56 77 242
a 56 76 429
a 56 75 165
a 57 78 101
a 57 77 194
a 57 76 351
a 58 79 325
a 58 78 365
a 58 77 435
a 59 80 57
a 59 79 588
a 59 78 515
a 60 81 228
a 60 80 292
a 60 79 544
a 61 62 137
a 61 81 460
a 61 80 566
a 62 83 438
a 62 82 552
a 62 101 233
a 63 84 408
a 63 83 276
a 63 82 29
a 64 85 459
a 64 84 122
a 64 83 475
a 65 86 38
a 65 85 30
a 65 84 596
a 66 87 219
a 66 86 194
a 66 85 436
a 67 88 412
a 67 87 544
a 67 86 429
a 68 89 177
a 68 88 130
a 68 87 529
a 69 90 164
a 69 89 44
a 69 88 5
a 70 91 207
a 70 90 339
a 70 89 414
a 71 92 419
a 71 91 305
a 71 90 41
a 72 93 370
a 72 92 289
a 72 91 529
a 73 94 397
a 73 93 318
a 73 92 118
a 74 95 271
a 74 94 544
a 74 93 525
a 75 96 300
a 75 95 291
a 75 94 384
a 76 97 245
a 76 96 126
a 76 95 173
a 77 98 540
a 77 97 306
a 77 96 391
a 78 99 70
a 78 98 587
a 78 97 555
a 79 100 465
a 79 99 343
a 79 98 483
a 80 101 556
a 80 100 508
a 80 99 398
a 81 82 12
a 81 101 549
a 81 100 5
a 82 103 300
a 82 102 229
a 82 121 423
a 83 104 369
a 83 103 347
a 83 102 544
a 84 105 312
a 84 104 23
a 84 103 341
a 85 106 2
a 85 105 406
a 85 104 11
a 86 107 479
a 86 106 331
a 86 105 62
a 87 108 537
a 87 107 121
a 87 106 306
a 88 109 523
a 88 108 427
a 88 107 245
a 89 110 17
a 89 109 309
a 89 108 66
a 90 111 525
a 90 110 459
a 90 109 283
a 91 112 225
a 91 111 463
a 91 110 238
a 92 113 453
a 92 112 37
a 92 111 1
a 93 114 551
a 93 113 580
a 93 112 300
a 94 115 574
a 94 114 72
a 94 113 69
a 95 116 131
a 95 115 82
a 95 114 132
a 96 117 461
a 96 116 495
a 96 115 134
a 97 118 582
a 97 117 200
a 97 116 364
a 98 119 160
a 98 118 197
a 98 117 300
a 99 120 469
a 99 119 14
a 99 118 574
a 100 121 327
a 100 120 296
a 100 119 591
a 101 102 541
a 101 121 285
a 101 120 267
a 102 123 577
a 102 122 285
a 102 141 491
a 103 124 308
a 103 123 337
a 103 122 343
a 104 125 380
a 104 124 157
a 104 123 46
a 105 126 213
a 105 125 288
a 105 124 19
a 106 127 460
a 106 126 173
a 106 125 149
a 107 128 411
a 107 127 537
a 107 126 10
a 108 129 7
a 108 128 588
a 108 127 343
a 109 130 373
a 109 129 314
a 109 128 502
a 110 131 420
a 110 130 56
a 110 129 122
a 111 132 105
a 111 131 322
a 111 130 200
a 112 133 141
a 112 132 212
a 112 131 140
a 113 134 229
a 113 133 306
a 113 132 468
a 114 135 385
a 114 134 351
a 114 133 528
a 115 136 425
a 115 135 121
a 115 134 59
a 116 137 597
a 116 136 270
a 116 135 23
a 117 138 285
a 117 137 31
a 117 136 482
a 118 139 273
a 118 138 373
a 118 137 293
a 119 140 586
a 119 139 26
a 119 138 51
a 120 141 41
a 120 140 500
a 120 139 423
a 121 122 114
a 121 141 99
a 121 140 243
a 122 143 325
a 122 142 591
a 122 161 99
a 123 144 382
a 123 143 210
a 123 142 591
a 124 145 133
a 124 144 137
a 124 143 220
a 125 146 5
a 125 145 195
a 125 144 356
a 126 147 274
a 126 146 570
a 126 145 180
a 127 148 56
a 127 147 451
a 127 146 177
a 128 149 180
a 128 148 143
a 128 147 461
a 129 150 206
a 129 149 194
a 129 148 485
a 130 151 105
a 130 150 368
a 130 149 222
a 131 152 555
a 131 151 362
a 131 150 14
a 132 153 545
a 132 152 460
a 132 151 127
a 133 154 507
a 133 153 203
a 133 152 203
a 134 155 43
a 134 154 422
a 134 153 585
a 135 156 590
a 135 155 529
a 135 154 469
a 136 157 559
a 136 156 109
a 136 155 473
a 137 158 409
a 137 157 37
a 137 156 499
a 138 159 304
a 138 158 249
a 138 157 554
a 139 160 249
a 139 159 134
a 139 158 134
a 140 161 368
a 140 160 355
a 140 159 91
a 141 142 130
a 141 161 369
a 141 160 547
a 142 163 589
a 142 162 247
a 142 181 501
a 143 164 191
a 143 163 450
a 143 162 198
a 144 165 364
a 144 164 434
a 144 163 104
a 145 166 293
a 145 165 54
a 145 164 498
a 146 167 153
a 146 166 526
a 146 165 487
a 147 168 189
a 147 167 176
a 147 166 197
a 148 169 437
a 148 168 130
a 148 167 358
a 149 170 322
a 149 169 15
a 149 168 61
a 150 171 429
a 150 170 105
a 150 169 61
a 151 172 549
a 151 171 51
a 151 170 428
a 152 173 195
a 152 172 303
a 152 171 557
a 153 174 44
a 153 173 500
a 153 172 298
a 154 175 229
a 154 174 3
a 154 173 240
a 155 176 282
a 155 175 501
a 155 174 4
a 156 177 560
a 156 176 139
a 156 175 48
a 157 178 135
a 157 177 336
a 157 176 552
a 158 179 16
a 158 178 93
a 158 177 140
a 159 180 30
a 159 179 505
a 159 178 328
a 160 181 486
a 160 180 565
a 160 179 50
a 161 162 536
a 161 181 144
a 161 180 230
a 162 183 239
a 162 182 101
a 162 201 178
a 163 184 490
a 163 183 150
a 163 182 372
a 164 185 493
a 164 184 389
a 164 183 168
a 165 186 145
a 165 185 144
a 165 184 396
a 166 187 283
a 166 186 191
a 166 185 430
a 167 188 370
a 167 187 142
a 167 186 141
a 168 189 462
a 168 188 33
a 168 187 27
a 169 190 118
a 169 189 361
a 169 188 43
a 170 191 82
a 170 190 162
a 170 189 424
a 171 192 226
a 171 191 391
a 171 190 310
a 172 193 78
a 172 192 568
a 172 191 597
a 173 194 227
a 173 193 91
a 173 192 235
a 174 195 15
a 174 194 258
a 174 193 125
a 175 196 159
a 175 195 406
a 175 194 369
a 176 197 101
a 176 196 587
a 176 195 513
a 177 198 595
a 177 197 127
a 177 196 547
a 178 199 379
a 178 198 153
a 178 197 317
a 179 200 491
a 179 199 547
a 179 198 530
a 180 201 52
a 180 200 371
a 180 199 48
a 181 182 194
a 181 201 432
a 181 200 481
a 182 203 513
a 182 202 428
a 182 221 458
a 183 204 356
a 183 203 415
a 183 202 287
a 184 205 13
a 184 204 291
a 184 203 513
a 185 206 170
a 185 205 411
a 185 204 280
a 186 207 156
a 186 206 75
a 186 205 190
a 187 208 34
a 187 207 21
a 187 206 42
a 188 209 539
a 188 208 89
a 188 207 388
a 189 210 485
a 189 209 371
a 189 208 167
a 190 211 7
a 190 210 418
a 190 209 57
a 191 212 438
a 191 211 50
a 191 210 461
a 192 213 18
a 192 212 260
a 192 211 406
a 193 214 184
a 193 213 546
a 193 212 319
a 194 215 474
a 194 214 459
a 194 213 74
a 195 216 284
a 195 215 490
a 195 214 438
a 196 217 358
a 196 216 79
a 196 215 8
a 197 218 130
a 197 217 472
a 197 216 515
a 198 219 219
a 198 218 260
a 198 217 301
a 199 220 589
a 199 219 426
a 199 218 239
a 200 221 158
a 200 220 234
a 200 219 475
a 201 202 559
a 201 221 94
a 201 220 482
a 202 223 218
a 202 222 500
a 202 241 71
a 203 224 164
a 203 223 570
a 203 222 440
a 204 225 374
a 204 224 395
a 204 223 23
a 205 226 263
a 205 225 232
a 205 224 248
a 206 227 93
a 206 226 591
a 206 225 283
a 207 228 316
a 207 227 258
a 207 226 392
a 208 229 575
a 208 228 558
a 208 227 522
a 209 230 152
a 209 229 548
a 209 228 492
a 210 231 138
a 210 230 422
a 210 229 232
a 211 232 231
a 211 231 55
a 211 230 141
a 212 233 482
a 212 232 126
a 212 231 99
a 213 234 203
a 213 233 317
a 213 232 317
a 214 235 597
a 214 234 340
a 214 233 232
a 215 236 581
a 215 235 339
a 215 234 5
a 216 237 571
a 216 236 22
a 216 235 19
a 217 238 580
a 217 237 413
a 217 236 463
a 218 239 537
a 218 238 86
a 218 237 178
a 219 240 484
a 219 239 577
a 219 238 505
a 220 241 58
a 220 240 560
a 220 239 408
a 221 222 112
a 221 241 100
a 221 240 545
a 222 243 237
a 222 242 551
a 222 261 528
a 223 244 306
a 223 243 19
a 223 242 161
a 224 245 45
a 224 244 250
a 224 243 364
a 225 246 135
a 225 245 6
a 225 244 112
a 226 247 156
a 226 246 376
a 226 245 92
a 227 248 569
a 227 247 590
a 227 246 415
a 228 249 406
a 228 248 519
a 228 247 394
a 229 250 383
a 229 249 423
a 229 248 83
a 230 251 94
a 230 250 231
a 230 249 318
a 231 252 194
a 231 251 527
a 231 250 375
a 232 253 144
a 232 252 454
a 232 251 487
a 233 254 514
a 233 253 15
a 233 252 475
a 234 255 163
a 234 254 378
a 234 253 180
a 235 256 520
a 235 255 489
a 235 254 576
a 236 257 295
a 236 256 333
a 236 255 111
a 237 258 36
a 237 257 147
a 237 256 18
a 238 259 554
a 238 258 292
a 238 257 338
a 239 260 129
a 239 259 374
a 239 258 144
a 240 261 111
a 240 260 92
a 240 259 526
a 241 242 37
a 241 261 218
a 241 260 19
a 242 263 491
a 242 262 456
a 242 281 564
a 243 264 505
a 243 263 331
a 243 262 459
a 244 265 34
a 244 264 262
a 244 263 372
a 245 266 274
a 245 265 590
a 245 264 286
a 246 267 6
a 246 266 452
a 246 265 205
a 247 268 504
a 247 267 469
a 247 266 251
a 248 269 196
a 248 268 207
a 248 267 286
a 249 270 321
a 249 269 350
a 249 268 240
a 250 271 164
a 250 270 27
a 250 269 368
a 251 272 382
a 251 271 397
a 251 270 478
a 252 273 237
a 252 272 361
a 252 271 266
a 253 274 319
a 253 273 571
a 253 272 156
a 254 275 333
a 254 274 343
a 254 273 412
a 255 276 322
a 255 275 380
a 255 274 197
a 256 277 173
a 256 276 585
a 256 275 471
a 257 278 41
a 257 277 235
a 257 276 228
a 258 279 599
a 258 278 273
a 258 277 484
a 259 280 348
a 259 279 264
a 259 278 431
a 260 281 374
a 260 280 31
a 260 279 151
a 261 262 523
a 261 281 260
a 261 280 315
a 262 283 283
a 262 282 525
a 262 301 448
a 263 284 5
a 263 283 433
a 263 282 436
a 264 285 99
a 264 284 244
a 264 283 155
a 265 286 479
a 265 285 441
a 265 284 487
a 266 287 463
a 266 286 63
a 266 285 560
a 267 288 449
a 267 287 42
a 267 286 484
a 268 289 473
a 268 288 525
a 268 287 524
a 269 290 136
a 269 289 355
a 269 288 523
a 270 291 166
a 270 290 258
a 270 289 22
a 271 292 177
a 271 291 572
a 271 290 148
a 272 293 102
a 272 292 419
a 272 291 70
a 273 294 534
a 273 293 254
a 273 292 104
a 274 295 529
a 274 294 160
a 274 293 108
a 275 296 121
a 275 295 398
a 275 294 207
a 276 297 535
a 276 296 109
a 276 295 85
a 277 298 577
a 277 297 592
a 277 296 299
a 278 299 253
a 278 298 516
a 278 297 499
a 279 300 360
a 279 299 190
a 279 298 372
a 280 301 17
a 280 300 211
a 280 299 507
a 281 282 340
a 281 301 110
a 281 300 425
a 282 303 510
a 282 302 179
a 282 321 1
a 283 304 515
a 283 303 282
a 283 302 454
a 284 305 427
a 284 304 390
a 284 303 139
a 285 306 224
a 285 305 348
a 285 304 68
a 286 307 333
a 286 306 432
a 286 305 188
a 287 308 76
a 287 307 482
a 287 306 123
a 288 309 591
a 288 308 380
a 288 307 451
a 289 310 532
a 289 309 151
a 289 308 455
a 290 311 495
a 290 310 58
a 290 309 214
a 291 312 4
a 291 311 482
a 291 310 582
a 292 313 183
a 292 312 234
a 292 311 321
a 293 314 216
a 293 313 88
a 293 312 582
a 294 315 5
a 294 314 226
a 294 313 497
a 295 316 352
a 295 315 293
a 295 314 323
a 296 317 535
a 296 316 233
a 296 315 298
a 297 318 416
a 297 317 107
a 297 316 382
a 298 319 196
a 298 318 309
a 298 317 458
a 299 320 98
a 299 319 163
a 299 318 200
a 300 321 155
a 300 320 377
a 300 319 484
a 301 302 388
a 301 321 110
a 301 320 378
a 302 323 22
a 302 322 183
a 302 341 133
a 303 324 461
a 303 323 164
a 303 322 67
a 304 325 86
a 304 324 412
a 304 323 283
a 305 326 131
a 305 325 486
a 305 324 287
a 306 327 115
a 306 326 184
a 306 325 391
a 307 328 221
a 307 327 317
a 307 326 77
a 308 329 529
a 308 328 526
a 308 327 493
a 309 330 91
a 309 329 126
a 309 328 440
a 310 331 219
a 310 330 361
a 310 329 537
a 311 332 329
a 311 331 138
a 311 330 444
a 312 333 511
a 312 332 22
a 312 331 583
a 313 334 426
a 313 333 89
a 313 332 356
a 314 335 238
a 314 334 371
a 314 333 216
a 315 336 123
a 315 335 409
a 315 334 54
a 316 337 58
a 316 336 551
a 316 335 184
a 317 338 127
a 317 337 28
a 317 336 298
a 318 339 52
a 318 338 272
a 318 337 270
a 319 340 529
a 319 339 111
a 319 338 550
a 320 341 289
a 320 340 399
a 320 339 40
a 321 322 178
a 321 341 594
a 321 340 11
a 322 343 200
a 322 342 577
a 322 361 91
a 323 344 288
a 323 343 332
a 323 342 353
a 324 345 58
a 324 344 300
a 324 343 178
a 325 346 218
a 325 345 353
a 325 344 167
a 326 347 169
a 326 346 536
a 326 345 42
a 327 348 196
a 327 347 585
a 327 346 99
a 328 349 467
a 328 348 6
a 328 347 577
a 329 350 329
a 329 349 555
a 329 348 29
a 330 351 479
a 330 350 594
a 330 349 309
a 331 352 473
a 331 351 356
a 331 350 598
a 332 353 201
a 332 352 446
a 332 351 175
a 333 354 284
a 333 353 198
a 333 352 126
a 334 355 583
a 334 354 128
a 334 353 413
a 335 356 335
a 335 355 294
a 335 354 222
a 336 357 22
a 336 356 335
a 336 355 440
a 337 358 358
a 337 357 186
a 337 356 360
a 338 359 363
a 338 358 162
a 338 357 555
a 339 360 317
a 339 359 542
a 339 358 173
a 340 361 63
a 340 360 251
a 340 359 253
a 341 342 418
a 341 361 600
a 341 360 483
a 342 363 16
a 342 362 174
a 342 381 355
a 343 364 565
a 343 363 52
a 343 362 307
a 344 365 92
a 344 364 464
a 344 363 591
a 345 366 138
a 345 365 438
a 345 364 573
a 346 367 472
a 346 366 29
a 346 365 60
a 347 368 57
a 347 367 388
a 347 366 81
a 348 369 571
a 348 368 342
a 348 367 191
a 349 370 512
a 349 369 266
a 349 368 553
a 350 371 162
a 350 370 518
a 350 369 270
a 351 372 513
a 351 371 152
a 351 370 84
a 352 373 439
a 352 372 507
a 352 371 501
a 353 374 490
a 353 373 565
a 353 372 268
a 354 375 105
a 354 374 555
a 354 373 233
a 355 376 542
a 355 375 280
a 355 374 76
a 356 377 570
a 356 376 339
a 356 375 213
a 357 378 357
a 357 377 171
a 357 376 437
a 358 379 450
a 358 378 361
a 358 377 245
a 359 380 115
a 359 379 66
a 359 378 215
a 360 381 384
a 360 380 87
a 360 379 127
a 361 362 536
a 361 381 170
a 361 380 40
a 362 383 194
a 362 382 422
a 362 401 553
a 363 384 510
a 363 383 90
a 363 382 391
a 364 385 465
a 364 384 74
a 364 383 32
a 365 386 496
a 365 385 149
a 365 384 136
a 366 387 234
a 366 386 114
a 366 385 78
a 367 388 156
a 367 387 550
a 367 386 399
a 368 389 269
a 368 388 194
a 368 387 156
a 369 390 334
a 369 389 161
a 369 388 357
a 370 391 172
a 370 390 287
a 370 389 224
a 371 392 341
a 371 391 78
a 371 390 359
a 372 393 162
a 372 392 382
a 372 391 46
a 373 394 251
a 373 393 524
a 373 392 591
a 374 395 76
a 374 394 555
a 374 393 501
a 375 396 225
a 375 395 443
a 375 394 365
a 376 397 90
a 376 396 520
a 376 395 260
a 377 398 39
a 377 397 70
a 377 396 245
a 378 399 584
a 378 398 577
a 378 397 152
a 379 400 144
a 379 399 334
a 379 398 420
a 380 401 182
a 380 400 557
a 380 399 505
a 381 382 12
a 381 401 67
a 381 400 76
a 382 402 1800
a 383 402 1800
a 384 402 1800
a 385 402 1800
a 386 402 1800
a 387 402 1800
a 388 402 1800
a 389 402 1800
a 390 402 1800
a 391 402 1800
a 392 402 1800
a 393 402 1800
a 394 402 1800
a 395 402 1800
a 396 402 1800
a 397 402 1800
a 398 402 1800
a 399 402 1800
a 400 402 1800
a 401 402 1800
